1
0 0
1 1
99
100
0 1
1 2
98
99
0 2
1 3
97
98
0 3
1 4
96
97
0 4
1 5
95
96
0 5
1 6
94
95
0 6
1 7
93
94
0 7
1 8
92
93
0 8
1 9
91
92
0 9
1 10
90
91
0 10
1 11
89
90
0 11
1 12
88
89
0 12
1 13
87
88
0 13
1 14
86
87
0 14
1 15
85
86
0 15
1 16
84
85
0 16
1 17
83
84
0 17
1 18
82
83
0 18
1 19
81
82
0 19
1 20
80
81
0 20
1 21
79
80
0 21
1 22
78
79
0 22
1 23
77
78
0 23
1 24
76
77
0 24
1 25
75
76
0 25
1 26
74
75
0 26
1 27
73
74
0 27
1 28
72
73
0 28
1 29
71
72
0 29
1 30
70
71
0 30
1 31
69
70
0 31
1 32
68
69
0 32
1 33
67
68
0 33
1 34
66
67
0 34
1 35
65
66
0 35
1 36
64
65
0 36
1 37
63
64
0 37
1 38
62
63
0 38
1 39
61
62
0 39
1 40
60
61
0 40
1 41
59
60
0 41
1 42
58
59
0 42
1 43
57
58
0 43
1 44
56
57
0 44
1 45
55
56
0 45
1 46
54
55
0 46
1 47
53
54
0 47
1 48
52
53
0 48
1 49
51
52
0 49
1 50
50
51
0 50
1 51
49
50
0 51
1 52
48
49
0 52
1 53
47
48
0 53
1 54
46
47
0 54
1 55
45
46
0 55
1 56
44
45
0 56
1 57
43
44
0 57
1 58
42
43
0 58
1 59
41
42
0 59
1 60
40
41
0 60
1 61
39
40
0 61
1 62
38
39
0 62
1 63
37
38
0 63
1 64
36
37
0 64
1 65
35
36
0 65
1 66
34
35
0 66
1 67
33
34
0 67
1 68
32
33
0 68
1 69
31
32
0 69
1 70
30
31
0 70
1 71
29
30
0 71
1 72
28
29
0 72
1 73
27
28
0 73
1 74
26
27
0 74
1 75
25
26
0 75
1 76
24
25
0 76
1 77
23
24
0 77
1 78
22
23
0 78
1 79
21
22
0 79
1 80
20
21
0 80
1 81
19
20
0 81
1 82
18
19
0 82
1 83
17
18
0 83
1 84
16
17
0 84
1 85
15
16
0 85
1 86
14
15
0 86
1 87
13
14
0 87
1 88
12
13
0 88
1 89
11
12
0 89
1 90
10
11
0 90
1 91
9
10
0 91
1 92
8
9
0 92
1 93
7
8
0 93
1 94
6
7
0 94
1 95
5
6
0 95
1 96
4
5
0 96
1 97
3
4
0 97
1 98
2
3
0 98
1 99
1
2
0 99
1 100
0
1
